NAME : Instance 33
COMMENT : Comment 33
TYPE : TSP
DIMENSION: 30
EDGE_WEIGHT_TYPE : EUC_2D
NODE_COORD_SECTION
  1 841 1147
  2 1146 1018
  3 1473 368
  4 1914 1468
  5 30 1643
  6 37 506
  7 1867 1647
  8 180 86
  9 519 1158
  10 1101 1059
  11 630 1448
  12 109 1864
  13 1732 1368
  14 519 412
  15 400 691
  16 1648 690
  17 1253 1828
  18 1384 88
  19 1404 274
  20 336 521
  21 436 1346
  22 320 391
  23 64 939
  24 66 790
  25 798 413
  26 791 1275
  27 19 353
  28 953 1672
  29 1446 260
  30 818 1538
EOF
